
Gurobi 11.0.3 (win64) logging started Wed Sep  4 15:52:27 2024

Set parameter LogFile to value "C:\Users\ealvarezq\Desktop\K.Investments_per_hour\IEEE118_mod2_ByStages_nc30/openStarNet_IEEE118_mod2_ByStages_nc30.log"
Set parameter Method to value 2
Set parameter MIPFocus to value 1
Set parameter Presolve to value 2
Set parameter RINS to value 100
Set parameter MIPGap to value 0.01
Set parameter Threads to value 24
Set parameter TimeLimit to value 259200
Set parameter IterationLimit to value 760000000
Gurobi Optimizer version 11.0.3 build v11.0.3rc0 (win64 - Windows Server 2019.0 (17763.2))

CPU model: AMD Ryzen Threadripper PRO 3955WX 16-Cores, instruction set [SSE2|AVX|AVX2]
Thread count: 16 physical cores, 32 logical processors, using up to 24 threads

Optimize a model with 42633 rows, 31596 columns and 109878 nonzeros
Model fingerprint: 0xc930f9ce
Variable types: 31562 continuous, 34 integer (34 binary)
Coefficient statistics:
  Matrix range     [2e-03, 9e+03]
  Objective range  [1e+00, 1e+00]
  Bounds range     [1e-04, 3e+00]
  RHS range        [2e-04, 3e+00]
Presolve removed 28844 rows and 14611 columns
Presolve time: 0.20s
Presolved: 13789 rows, 16985 columns, 50420 nonzeros
Variable types: 16951 continuous, 34 integer (34 binary)
Root relaxation presolved: 13789 rows, 16985 columns, 50420 nonzeros

Root barrier log...

Ordering time: 0.01s

Barrier statistics:
 Dense cols : 34
 AA' NZ     : 6.247e+04
 Factor NZ  : 2.423e+05 (roughly 14 MB of memory)
 Factor Ops : 5.067e+06 (less than 1 second per iteration)
 Threads    : 23

                  Objective                Residual
Iter       Primal          Dual         Primal    Dual     Compl     Time
   0   8.90959065e+06 -8.99563879e+08  1.55e+01 3.96e+03  9.83e+04     0s
   1   2.03758469e+06 -3.45867303e+08  3.25e+00 9.01e-09  1.98e+04     1s
   2   6.08394804e+05 -2.63078150e+08  7.29e-01 9.99e-09  8.69e+03     1s
   3   3.40452275e+05 -4.71757568e+07  2.18e-01 3.41e-09  1.47e+03     1s
   4   2.15576274e+05 -7.01051427e+06  1.55e-02 5.11e-10  1.84e+02     1s
   5   1.38597269e+05 -2.02488337e+06  2.54e-03 1.39e-10  5.34e+01     1s
   6   8.01938272e+04 -6.26115833e+05  9.13e-04 5.37e-11  1.74e+01     1s
   7   3.74144978e+04 -1.41943054e+05  2.72e-04 1.09e-11  4.40e+00     1s
   8   9.46118543e+03 -3.52506596e+04  2.69e-05 7.56e-12  1.10e+00     1s
   9   6.56039846e+03 -2.18796857e+04  1.49e-05 1.11e-11  6.98e-01     1s
  10   4.20152446e+03 -7.46414668e+03  7.03e-06 1.25e-11  2.86e-01     2s
  11   2.96229342e+03 -2.91707463e+03  3.87e-06 1.07e-11  1.44e-01     2s
  12   2.05116002e+03 -1.12883540e+03  2.02e-06 1.19e-11  7.80e-02     2s
  13   1.66575663e+03 -2.15439429e+02  1.24e-06 6.31e-12  4.62e-02     2s
  14   1.35274944e+03  4.86293445e+02  6.56e-07 8.04e-12  2.13e-02     2s
  15   1.14559522e+03  6.85860345e+02  2.93e-07 7.32e-12  1.13e-02     2s
  16   1.07730520e+03  7.73780231e+02  1.81e-07 4.67e-12  7.45e-03     2s
  17   1.03274993e+03  8.59827028e+02  1.10e-07 9.04e-12  4.24e-03     2s
  18   1.00231427e+03  9.03008398e+02  6.42e-08 1.04e-11  2.44e-03     3s
  19   9.84695467e+02  9.30057435e+02  3.78e-08 1.13e-11  1.34e-03     3s
  20   9.72997756e+02  9.34829356e+02  2.05e-08 7.49e-12  9.37e-04     3s
  21   9.64200550e+02  9.47462756e+02  7.63e-09 3.83e-12  4.11e-04     3s
  22   9.60934578e+02  9.54412170e+02  3.17e-09 1.38e-11  1.60e-04     3s
  23   9.59145735e+02  9.57663857e+02  7.77e-10 1.03e-11  3.64e-05     3s
  24   9.58756267e+02  9.58191192e+02  4.32e-09 7.43e-12  1.39e-05     3s
  25   9.58587632e+02  9.58357714e+02  4.47e-09 8.48e-12  5.64e-06     4s
  26   9.58466561e+02  9.58426719e+02  3.81e-09 9.69e-12  9.78e-07     4s
  27   9.58448139e+02  9.58439699e+02  7.96e-10 6.53e-12  2.07e-07     4s
  28   9.58445692e+02  9.58444955e+02  4.22e-09 1.61e-11  1.81e-08     4s
  29   9.58445605e+02  9.58445579e+02  2.29e-10 9.37e-12  6.36e-10     4s
  30   9.58445605e+02  9.58445604e+02  7.16e-11 8.29e-12  1.06e-11     5s

Barrier solved model in 30 iterations and 4.60 seconds (0.41 work units)
Optimal objective 9.58445605e+02


Root relaxation: objective 9.584456e+02, 1112 iterations, 4.47 seconds (0.34 work units)

    Nodes    |    Current Node    |     Objective Bounds      |     Work
 Expl Unexpl |  Obj  Depth IntInf | Incumbent    BestBd   Gap | It/Node Time

     0     0  958.44560    0   23          -  958.44560      -     -    4s
H    0     0                    4539.5258557  958.44560  78.9%     -    5s
H    0     0                    2151.9110936  958.44560  55.5%     -    5s
     0     0  978.90292    0   21 2151.91109  978.90292  54.5%     -    6s
H    0     0                    1136.4345527  978.90292  13.9%     -    6s
     0     0  981.87340    0   20 1136.43455  981.87340  13.6%     -    6s
     0     0  981.87340    0   21 1136.43455  981.87340  13.6%     -    6s
     0     0  982.49512    0   21 1136.43455  982.49512  13.5%     -    7s
     0     0 1003.26980    0   21 1136.43455 1003.26980  11.7%     -    7s
     0     0 1003.26980    0   20 1136.43455 1003.26980  11.7%     -    8s
     0     0 1003.26980    0   20 1136.43455 1003.26980  11.7%     -    8s
     0     0 1005.31064    0   20 1136.43455 1005.31064  11.5%     -    8s
H    0     0                    1107.1711879 1005.31064  9.20%     -   40s
     0     2 1005.31064    0   20 1107.17119 1005.31064  9.20%     -   41s
    95    56 1086.40485    7   14 1107.17119 1049.80785  5.18%   327   45s
   200    76     cutoff   10      1107.17119 1049.80785  5.18%   272   55s

Cutting planes:
  Gomory: 1
  Implied bound: 78
  MIR: 147

Explored 556 nodes (92672 simplex iterations) in 59.63 seconds (50.88 work units)
Thread count was 24 (of 32 available processors)

Solution count 4: 1107.17 1136.43 2151.91 4539.53 

Optimal solution found (tolerance 1.00e-02)
Best objective 1.107171187908e+03, best bound 1.098124557886e+03, gap 0.8171%

Gurobi 11.0.3 (win64) logging started Wed Sep  4 15:53:35 2024

Set parameter LogFile to value "C:\Users\ealvarezq\Desktop\K.Investments_per_hour\IEEE118_mod2_ByStages_nc30/openStarNet_IEEE118_mod2_ByStages_nc30.log"
Set parameter Method to value 2
Set parameter MIPFocus to value 1
Set parameter Presolve to value 2
Set parameter RINS to value 100
Set parameter MIPGap to value 0.01
Set parameter Threads to value 24
Set parameter TimeLimit to value 259200
Set parameter IterationLimit to value 760000000
Gurobi Optimizer version 11.0.3 build v11.0.3rc0 (win64 - Windows Server 2019.0 (17763.2))

CPU model: AMD Ryzen Threadripper PRO 3955WX 16-Cores, instruction set [SSE2|AVX|AVX2]
Thread count: 16 physical cores, 32 logical processors, using up to 24 threads

Optimize a model with 42633 rows, 31562 columns and 105764 nonzeros
Model fingerprint: 0x4153212c
Coefficient statistics:
  Matrix range     [2e-03, 9e+03]
  Objective range  [1e+00, 1e+00]
  Bounds range     [1e-04, 3e+00]
  RHS range        [2e-04, 2e+02]
Presolve removed 31823 rows and 13971 columns
Presolve time: 0.07s
Presolved: 10810 rows, 17712 columns, 42616 nonzeros

Ordering time: 0.01s

Barrier statistics:
 AA' NZ     : 3.585e+04
 Factor NZ  : 1.413e+05 (roughly 13 MB of memory)
 Factor Ops : 2.030e+06 (less than 1 second per iteration)
 Threads    : 24

                  Objective                Residual
Iter       Primal          Dual         Primal    Dual     Compl     Time
   0   1.44376014e+07 -3.52743299e+08  8.13e+01 2.85e+02  3.46e+04     0s
   1   1.57649103e+06 -1.00100010e+08  7.80e+00 3.18e-12  4.46e+03     0s
   2   3.82807489e+05 -1.57666624e+07  1.21e+00 3.18e-12  5.91e+02     0s
   3   1.50182831e+05 -2.45751990e+06  3.39e-02 1.82e-12  6.98e+01     0s
   4   6.26435963e+04 -4.53081821e+05  1.41e-03 2.73e-12  1.33e+01     0s
   5   2.96122127e+04 -1.09048755e+05  4.46e-04 1.14e-12  3.58e+00     0s
   6   1.05473381e+04 -2.81668705e+04  8.98e-05 6.68e-13  1.00e+00     0s
   7   6.34404773e+03 -9.07313085e+03  3.89e-05 9.43e-13  3.98e-01     0s
   8   4.63133705e+03 -3.47675880e+03  2.46e-05 5.28e-13  2.09e-01     0s
   9   2.93225165e+03 -1.58723198e+03  1.21e-05 7.03e-13  1.17e-01     0s
  10   1.94126474e+03  2.91866909e+02  5.04e-06 7.62e-13  4.26e-02     0s
  11   1.55661119e+03  7.22420835e+02  2.59e-06 5.83e-13  2.16e-02     0s
  12   1.35860465e+03  8.79132736e+02  1.41e-06 5.49e-13  1.24e-02     0s
  13   1.28397882e+03  9.71725427e+02  9.77e-07 6.94e-13  8.07e-03     0s
  14   1.19478142e+03  1.02505171e+03  4.68e-07 7.21e-13  4.39e-03     0s
  15   1.16838163e+03  1.06142822e+03  3.22e-07 6.50e-13  2.76e-03     1s
  16   1.13932198e+03  1.09880863e+03  1.66e-07 9.03e-13  1.05e-03     1s
  17   1.12359695e+03  1.10187539e+03  8.40e-08 7.68e-13  5.61e-04     1s
  18   1.10988775e+03  1.10555288e+03  1.23e-08 8.06e-13  1.12e-04     1s
  19   1.10745270e+03  1.10665833e+03  1.08e-09 8.81e-13  2.05e-05     1s
  20   1.10717854e+03  1.10716614e+03  5.88e-11 1.37e-12  3.20e-07     1s
  21   1.10717124e+03  1.10717093e+03  1.22e-09 7.59e-13  8.18e-09     1s
  22   1.10717119e+03  1.10717118e+03  2.22e-09 7.34e-13  9.92e-11     1s

Barrier solved model in 22 iterations and 0.63 seconds (0.17 work units)
Optimal objective 1.10717119e+03

Crossover log...

    3114 DPushes remaining with DInf 0.0000000e+00                 1s
       0 DPushes remaining with DInf 0.0000000e+00                 1s

     192 PPushes remaining with PInf 0.0000000e+00                 1s
       0 PPushes remaining with PInf 0.0000000e+00                 1s

  Push phase complete: Pinf 0.0000000e+00, Dinf 2.9155980e-12      1s

Iteration    Objective       Primal Inf.    Dual Inf.      Time
     896    1.1071712e+03   0.000000e+00   0.000000e+00      1s

Solved in 896 iterations and 0.70 seconds (0.20 work units)
Optimal objective  1.107171188e+03
